1627889400
1627910100
1627969920
1628001480
1628056800
1628087460
1628142300
1628174700
1628229600
1628260200
1628487900
1628519400
1628574600
1628605860
1628660880
1628694900
1628748000
1628781300
1628834400
1628866800
1628866800
1628867700
1629093600
1629124200
1629180000
1629211560
1629266400
1629297000
1629352800
1629384600
1629439200
1629470040
1629698100
1629729480
1629784800
1629811860
1629870900
1629891900
1629893700
1629903660
1629957360
1629988260
1630043100
1630074600
